# Objective value = 1.0650968065226634e+05
e[1] 991.2117934
e[2] 991.0402734
e[3] 9.8952964948666852e+02
e[4] 988.019025573337
e[5] 9.8650840166000557e+02
e[6] 9.8633688165989906e+02
e[7] 9.8616536165979255e+02
e[8] 985.993841659686
e[9] 9.8582232165957942e+02
e[10] 9.8599384165971458e+02
e[11] 9.8616536165984974e+02
e[12] 9.8633688165998490e+02
e[13] 9.8650840166012006e+02
e[14] 9.8667992166025522e+02
e[15] 9.8639405499323243e+02
e[16] 986.10818832621
e[17] 9.8582232165673338e+02
e[18] 9.8599384165743459e+02
e[19] 9.8616536165813579e+02
e[20] 986.336881658781
e[21] 9.8650840165937279e+02
e[22] 9.8726935890624839e+02
e[23] 9.8803031615312420e+02
e[24] 988.7912734
e[25] 988.9627934
e[26] 989.1343134
pi[1] 0
pi[2] 1
pi[3] 0
pi[4] 0
pi[5] 1
pi[6] 0
pi[7] 0
pi[8] 0
pi[9] 1
pi[10] 0
pi[11] 0
pi[12] 0
pi[13] 0
pi[14] 1
pi[15] 0
pi[16] 0
pi[17] 1
pi[18] 0
pi[19] 0
pi[20] 0
pi[21] 1
pi[22] 0
pi[23] 0
pi[24] 1
pi[25] 0
e_bar 9.8582232165910932e+02
B_minus_s[0] 0
B_minus_s[1] 0
B_minus_s[2] 1
B_minus_s[3] 1
B_minus_s[4] 1
B_minus_s[5] 1
B_minus_s[6] 1
B_minus_s[7] 1
B_minus_s[8] 1
B_minus_s[9] 0
B_minus_s[10] 0
B_minus_s[11] 0
B_minus_s[12] 0
B_minus_s[13] 0
B_minus_s[14] 1
B_minus_s[15] 1
B_minus_s[16] 1
B_minus_s[17] 0
B_minus_s[18] 0
B_minus_s[19] 0
B_minus_s[20] 0
B_minus_s[21] 0
B_minus_s[22] 0
B_minus_s[23] 0
B_minus_s[24] 0
B_minus_s[25] 0
B_add_s[0] 0
B_add_s[1] 0
B_add_s[2] 0
B_add_s[3] 0
B_add_s[4] 0
B_add_s[5] 0
B_add_s[6] 0
B_add_s[7] 0
B_add_s[8] 0
B_add_s[9] 1
B_add_s[10] 1
B_add_s[11] 1
B_add_s[12] 1
B_add_s[13] 1
B_add_s[14] 0
B_add_s[15] 0
B_add_s[16] 0
B_add_s[17] 1
B_add_s[18] 1
B_add_s[19] 1
B_add_s[20] 1
B_add_s[21] 1
B_add_s[22] 1
B_add_s[23] 1
B_add_s[24] 1
B_add_s[25] 0
g_s[0] 0.17152
g_s[1] 0.17152
g_s[2] 1.5106239133315285e+00
g_s[3] 1.5106239133315105e+00
g_s[4] 1.5106239133314148e+00
g_s[5] 1.7152000010651136e-01
g_s[6] 1.7152000010651136e-01
g_s[7] 1.7152000010651136e-01
g_s[8] 1.7152000010662505e-01
g_s[9] 1.7152000013515306e-01
g_s[10] 1.7152000013515306e-01
g_s[11] 1.7152000013515306e-01
g_s[12] 1.7152000013515306e-01
g_s[13] 1.7152000013508695e-01
g_s[14] 2.8586666702278762e-01
g_s[15] 2.8586666702234226e-01
g_s[16] 0.285866669641905
g_s[17] 1.7152000070123294e-01
g_s[18] 1.7152000070123294e-01
g_s[19] 1.7152000070123294e-01
g_s[20] 1.7152000070105747e-01
g_s[21] 7.6095724687568289e-01
g_s[22] 7.6095724687583277e-01
g_s[23] 7.6095724687581878e-01
g_s[24] 0.17152
g_s[25] 0.17152
eth_minus_s[0] 0
eth_minus_s[1] 0
eth_minus_s[2] 0
eth_minus_s[3] 0
eth_minus_s[4] 0
eth_minus_s[5] 0
eth_minus_s[6] 0
eth_minus_s[7] 0
eth_minus_s[8] 0
eth_minus_s[9] 0
eth_minus_s[10] 0
eth_minus_s[11] 0
eth_minus_s[12] 0
eth_minus_s[13] 0
eth_minus_s[14] 0
eth_minus_s[15] 0
eth_minus_s[16] 0
eth_minus_s[17] 0
eth_minus_s[18] 0
eth_minus_s[19] 0
eth_minus_s[20] 0
eth_minus_s[21] 0
eth_minus_s[22] 0
eth_minus_s[23] 0
eth_minus_s[24] 0
eth_minus_s[25] 0
eth_add_s[0] 0
eth_add_s[1] 0
eth_add_s[2] 0
eth_add_s[3] 0
eth_add_s[4] 0
eth_add_s[5] 0
eth_add_s[6] 0
eth_add_s[7] 0
eth_add_s[8] 0
eth_add_s[9] 1.7152000013515306e-01
eth_add_s[10] 1.7152000013515306e-01
eth_add_s[11] 1.7152000013515306e-01
eth_add_s[12] 1.7152000013515306e-01
eth_add_s[13] 1.7152000013508695e-01
eth_add_s[14] 0
eth_add_s[15] 0
eth_add_s[16] 0
eth_add_s[17] 1.7152000070123294e-01
eth_add_s[18] 1.7152000070123294e-01
eth_add_s[19] 1.7152000070123294e-01
eth_add_s[20] 1.7152000070105747e-01
eth_add_s[21] 7.6095724687568289e-01
eth_add_s[22] 7.6095724687583277e-01
eth_add_s[23] 7.6095724687581878e-01
eth_add_s[24] 1.7151999999999340e-01
eth_add_s[25] 0
L2R_v[0] 0.1
L2R_v[1] 1.3587513128445341e+01
L2R_v[2] 1.7407315965634130e+01
L2R_v[3] 1.8062077478068783e+01
L2R_v[4] 1.8688357336040212e+01
L2R_v[5] 1.8636096588963504e+01
L2R_v[6] 1.8584158104442221e+01
L2R_v[7] 1.8532540420009664e+01
L2R_v[8] 1.8481242077078313e+01
L2R_v[9] 1.8257369460541234e+01
L2R_v[10] 1.8032757393771568e+01
L2R_v[11] 1.7807360110346686e+01
L2R_v[12] 1.7581129564220774e+01
L2R_v[13] 1.7354015258015927e+01
L2R_v[14] 1.7371124983606993e+01
L2R_v[15] 1.7388064813654967e+01
L2R_v[16] 1.7404836618495434e+01
L2R_v[17] 1.7176999490111420e+01
L2R_v[18] 1.6948182248276058e+01
L2R_v[19] 1.6718326543739661e+01
L2R_v[20] 1.6123631002878160e+01
L2R_v[21] 1.5016945175250987e+01
L2R_v[22] 1.3725285886913145e+01
L2R_v[23] 1.2061204592696761e+01
L2R_v[24] 1.0201549190442561e+01
L2R_v[25] 0.1
L2R_v2[0] 1.0000000000000002e-02
L2R_v2[1] 1.8462051302128526e+02
L2R_v2[2] 3.0301464912742085e+02
L2R_v2[3] 3.2623864281413995e+02
L2R_v2[4] 3.4925469991952804e+02
L2R_v2[5] 3.4730409607317716e+02
L2R_v2[6] 3.4537093245090546e+02
L2R_v2[7] 3.4345505441929197e+02
L2R_v2[8] 3.4155630871156995e+02
L2R_v2[9] 3.3333153961870374e+02
L2R_v2[10] 3.2518033922262316e+02
L2R_v2[11] 3.1710207409956632e+02
L2R_v2[12] 3.0909611675391773e+02
L2R_v2[13] 3.0116184557544960e+02
L2R_v2[14] 3.0175598319609509e+02
L2R_v2[15] 302.344797963866
L2R_v2[16] 3.0292833771651959e+02
L2R_v2[17] 2.9504931148328797e+02
L2R_v2[18] 2.8724088152077974e+02
L2R_v2[19] 2.7950244242311010e+02
L2R_v2[20] 2.5997147671697377e+02
L2R_v2[21] 2.2550864239649391e+02
L2R_v2[22] 1.8838347267749717e+02
L2R_v2[23] 1.4547265622688946e+02
L2R_v2[24] 1.0407160588501928e+02
L2R_v2[25] 1.0000000000000002e-02
L2R_E_hat[0] 5.0000000000000010e-03
L2R_E_hat[1] 9.2310256510642631e+01
L2R_E_hat[2] 1.5150732456371043e+02
L2R_E_hat[3] 1.6311932140706998e+02
L2R_E_hat[4] 1.7462734995976402e+02
L2R_E_hat[5] 1.7365204803658858e+02
L2R_E_hat[6] 1.7268546622545273e+02
L2R_E_hat[7] 1.7172752720964598e+02
L2R_E_hat[8] 1.7077815435578498e+02
L2R_E_hat[9] 1.6666576980935187e+02
L2R_E_hat[10] 1.6259016961131158e+02
L2R_E_hat[11] 1.5855103704978316e+02
L2R_E_hat[12] 1.5454805837695886e+02
L2R_E_hat[13] 1.5058092278772480e+02
L2R_E_hat[14] 1.5087799159804754e+02
L2R_E_hat[15] 151.172398981933
L2R_E_hat[16] 1.5146416885825980e+02
L2R_E_hat[17] 1.4752465574164398e+02
L2R_E_hat[18] 1.4362044076038987e+02
L2R_E_hat[19] 1.3975122121155505e+02
L2R_E_hat[20] 1.2998573835848688e+02
L2R_E_hat[21] 1.1275432119824696e+02
L2R_E_hat[22] 9.4191736338748584e+01
L2R_E_hat[23] 7.2736328113444728e+01
L2R_E_hat[24] 5.2035802942509640e+01
L2R_E_hat[25] 5.0000000000000010e-03
L2R_a[1] 1.0763206216259635e+00
L2R_a[2] 6.9026431964865309e-01
L2R_a[3] 1.3540108259514413e-01
L2R_a[4] 1.3418876577301830e-01
L2R_a[5] -1.1372457126607838e-02
L2R_a[6] -1.1270776715633701e-02
L2R_a[7] -1.1169997852261249e-02
L2R_a[8] -1.1070112568296819e-02
L2R_a[9] -0.0479522451776726
L2R_a[10] -4.7523323204713974e-02
L2R_a[11] -4.7098094234281518e-02
L2R_a[12] -4.6676523703601147e-02
L2R_a[13] -4.6258577299871761e-02
L2R_a[14] 3.4639553442833981e-03
L2R_a[15] 3.4329219202588190e-03
L2R_a[16] 3.4021674012549852e-03
L2R_a[17] -4.5936486900883478e-02
L2R_a[18] -4.5524894837343788e-02
L2R_a[19] -4.5116832425818987e-02
L2R_a[20] -1.1386990267100949e-01
L2R_a[21] -2.0092603964834727e-01
L2R_a[22] -2.1644805106688769e-01
L2R_a[23] -2.5017966680626147e-01
L2R_a[24] -2.4137739238497058e-01
L2R_a[25] -6.0670245968411429e-01
L2R_f[1] 200
L2R_f[2] 1.0264836860085416e+02
L2R_f[3] 0
L2R_f[4] 0
L2R_f[5] 0
L2R_f[6] 0
L2R_f[7] 0
L2R_f[8] 0
L2R_f[9] 0
L2R_f[10] 0
L2R_f[11] 0
L2R_f[12] 0
L2R_f[13] 0
L2R_f[14] 0
L2R_f[15] 0
L2R_f[16] 0
L2R_f[17] 0
L2R_f[18] 0
L2R_f[19] 0
L2R_f[20] 0
L2R_f[21] 0
L2R_f[22] 0
L2R_f[23] 0
L2R_f[24] 0
L2R_f[25] 0
L2R_b[1] 0
L2R_b[2] 0
L2R_b[3] 0
L2R_b[4] 0
L2R_b[5] 3.0019924324165010e-08
L2R_b[6] 1.5050806823069255e-08
L2R_b[7] 1.3452796210344790e-08
L2R_b[8] 0
L2R_b[9] 0
L2R_b[10] 0
L2R_b[11] 0
L2R_b[12] 0
L2R_b[13] 0
L2R_b[14] 0
L2R_b[15] 0
L2R_b[16] 0
L2R_b[17] 0
L2R_b[18] 1.6012996262304572e-08
L2R_b[19] 2.8643416527529559e-08
L2R_b[20] 1.2938702302855518e+01
L2R_b[21] 1.7528806940150758e+01
L2R_b[22] 2.0770717875254562e+01
L2R_b[23] 2.7446541985591466e+01
L2R_b[24] 3.8111661028704809e+01
L2R_b[25] 1.0687144846038603e+02
L2R_f_max[1] 200
L2R_f_max[2] 200
L2R_f_max[3] 200
L2R_f_max[4] 200
L2R_f_max[5] 200
L2R_f_max[6] 200
L2R_f_max[7] 200
L2R_f_max[8] 200
L2R_f_max[9] 200
L2R_f_max[10] 200
L2R_f_max[11] 200
L2R_f_max[12] 200
L2R_f_max[13] 200
L2R_f_max[14] 200
L2R_f_max[15] 200
L2R_f_max[16] 200
L2R_f_max[17] 200
L2R_f_max[18] 200
L2R_f_max[19] 200
L2R_f_max[20] 200
L2R_f_max[21] 200
L2R_f_max[22] 200
L2R_f_max[23] 200
L2R_f_max[24] 200
L2R_f_max[25] 200
L2R_b_max[1] 200
L2R_b_max[2] 200
L2R_b_max[3] 200
L2R_b_max[4] 200
L2R_b_max[5] 200
L2R_b_max[6] 200
L2R_b_max[7] 200
L2R_b_max[8] 200
L2R_b_max[9] 200
L2R_b_max[10] 200
L2R_b_max[11] 200
L2R_b_max[12] 200
L2R_b_max[13] 200
L2R_b_max[14] 200
L2R_b_max[15] 200
L2R_b_max[16] 200
L2R_b_max[17] 200
L2R_b_max[18] 200
L2R_b_max[19] 200
L2R_b_max[20] 200
L2R_b_max[21] 200
L2R_b_max[22] 200
L2R_b_max[23] 200
L2R_b_max[24] 200
L2R_b_max[25] 200
L2R_gamma[1] 1
L2R_gamma[2] 1
L2R_gamma[3] 0
L2R_gamma[4] 0
L2R_gamma[5] 0
L2R_gamma[6] 0
L2R_gamma[7] 0
L2R_gamma[8] 0
L2R_gamma[9] 0
L2R_gamma[10] 0
L2R_gamma[11] 0
L2R_gamma[12] 0
L2R_gamma[13] 0
L2R_gamma[14] 0
L2R_gamma[15] 0
L2R_gamma[16] 0
L2R_gamma[17] 0
L2R_gamma[18] 0
L2R_gamma[19] 0
L2R_gamma[20] 0
L2R_gamma[21] 0
L2R_gamma[22] 0
L2R_gamma[23] 0
L2R_gamma[24] 0
L2R_gamma[25] 0
L2R_t[1] 1.2623354868443458e+01
L2R_t[2] 5.6191708059762648e+00
L2R_t[3] 4.8373668615578271e+00
L2R_t[4] 4.6685114476081973e+00
L2R_t[5] 4.5953876943059688e+00
L2R_t[6] 4.6082525604515636e+00
L2R_t[7] 4.62110959596183
L2R_t[8] 4.6339584306983523e+00
L2R_t[9] 4.6688310215737259e+00
L2R_t[10] 4.7265354437636109e+00
L2R_t[11] 4.7858878825473194e+00
L2R_t[12] 4.8469717544674937e+00
L2R_t[13] 4.9098765781123612e+00
L2R_t[14] 4.9393621003902259e+00
L2R_t[15] 4.9345235529902380e+00
L2R_t[16] 4.9297423553602595e+00
L2R_t[17] 4.9600444821764142e+00
L2R_t[18] 5.0264263271326524e+00
L2R_t[19] 5.0949148493386884e+00
L2R_t[20] 5.2243006008472692e+00
L2R_t[21] 5.5148915278809234e+00
L2R_t[22] 5.97960172690156
L2R_t[23] 6.6793612404145870e+00
L2R_t[24] 7.7584836184016721e+00
L2R_t[25] 1.6813132672113351e+01
L2R_Psi_t[1] 7.3596985006131321e-02
L2R_Psi_t[2] 5.7447110282493864e-02
L2R_Psi_t[3] 5.5364616899358447e-02
L2R_Psi_t[4] 5.3509250814222996e-02
L2R_Psi_t[5] 0.0536593054895525
L2R_Psi_t[6] 5.3809271013518088e-02
L2R_Psi_t[7] 5.3959143071410524e-02
L2R_Psi_t[8] 5.4108917345997411e-02
L2R_Psi_t[9] 5.4772403119806023e-02
L2R_Psi_t[10] 5.5454636147070635e-02
L2R_Psi_t[11] 5.6156555143677123e-02
L2R_Psi_t[12] 5.6879166742226428e-02
L2R_Psi_t[13] 5.7623551963750512e-02
L2R_Psi_t[14] 5.7566795526696912e-02
L2R_Psi_t[15] 5.7510712705343331e-02
L2R_Psi_t[16] 5.7455293716307532e-02
L2R_Psi_t[17] 5.8217385438922978e-02
L2R_Psi_t[18] 5.9003377787120406e-02
L2R_Psi_t[19] 5.9814599109769134e-02
L2R_Psi_t[20] 6.2020769380141130e-02
L2R_Psi_t[21] 6.6591439758871357e-02
L2R_Psi_t[22] 7.2858227379692331e-02
L2R_Psi_t[23] 8.2910458264302628e-02
L2R_Psi_t[24] 0.0980243276126004
L2R_phi_n[1] 2.0020043619730390e+04
L2R_phi_n[2] 1.2255504015314204e+04
L2R_phi_n[3] 1.1944115707550191e+03
L2R_phi_n[4] 1.1527188759526412e+03
L2R_phi_n[5] 1.1346636282236959e+03
L2R_phi_n[6] 1.1378401383831022e+03
L2R_phi_n[7] 1.1410147150523037e+03
L2R_phi_n[8] 0
L2R_phi_n[9] 1.1527977831046237e+03
L2R_phi_n[10] 1.1670457885836076e+03
L2R_phi_n[11] 1.1817007117400788e+03
L2R_phi_n[12] 1.1967831492512330e+03
L2R_phi_n[13] 1.2123152044721878e+03
L2R_phi_n[14] 0
L2R_phi_n[15] 0
L2R_phi_n[16] 1.2172203346568542e+03
L2R_phi_n[17] 1.2247023412781268e+03
L2R_phi_n[18] 1.2410929202796672e+03
L2R_phi_n[19] 1.2580036665033797e+03
L2R_phi_n[20] 5.1695720318366477e+02
L2R_phi_n[21] 0
L2R_phi_n[22] 0
L2R_phi_n[23] 0
L2R_phi_n[24] 0
L2R_phi_n[25] 0
L2R_phi_b[1] 3.8449284907858096e+03
L2R_phi_b[2] 0
L2R_phi_b[3] 0
L2R_phi_b[4] 0
L2R_phi_b[5] 0
L2R_phi_b[6] 0
L2R_phi_b[7] 0
L2R_phi_b[8] 1.0297685401552071e+03
L2R_phi_b[9] 0
L2R_phi_b[10] 0
L2R_phi_b[11] 0
L2R_phi_b[12] 0
L2R_phi_b[13] 0
L2R_phi_b[14] 1.0976360223089632e+03
L2R_phi_b[15] 1.0965607895534124e+03
L2R_phi_b[16] 0
L2R_phi_b[17] 0
L2R_phi_b[18] 0
L2R_phi_b[19] 0
L2R_phi_b[20] 6.9569420621187248e+02
L2R_phi_b[21] 1.2255314506402194e+03
L2R_phi_b[22] 1.3288003837559170e+03
L2R_phi_b[23] 1.4843024978699209e+03
L2R_phi_b[24] 1.7241074707559451e+03
L2R_phi_b[25] 3.7362517049141156e+03
L2R_w0[1] 2.0905450000000005e+00
L2R_w0[2] 3.4226909632971187e+00
L2R_w0[3] 4.2296869157914507e+00
L2R_w0[4] 4.3870595375769836e+00
L2R_w0[5] 4.5428014513701260e+00
L2R_w0[6] 4.5296103710474940e+00
L2R_w0[7] 4.5165358103544193e+00
L2R_w0[8] 4.5035767498414927e+00
L2R_w0[9] 4.4907321789805721e+00
L2R_w0[10] 4.4350772282348787e+00
L2R_w0[11] 4.3798932274060123e+00
L2R_w0[12] 4.3251756107285786e+00
L2R_w0[13] 4.2709198286298289e+00
L2R_w0[14] 4.2171213457689785e+00
L2R_w0[15] 4.2211509156139666e+00
L2R_w0[16] 4.2251442219389475e+00
L2R_w0[17] 4.2291015940186325e+00
L2R_w0[18] 4.1756551196444640e+00
L2R_w0[19] 4.1226579159181735e+00
L2R_w0[20] 4.0701054758788651e+00
L2R_w0[21] 3.9373261824885355e+00
L2R_w0[22] 3.70247223829467
L2R_w0[23] 3.4485003740954805e+00
L2R_w0[24] 3.15327207048321
L2R_w0[25] 2.8659406203189626e+00
L2R_wi[1] -3.4593999999997322e+00
L2R_wi[2] -3.0467889259438380e+01
L2R_wi[3] -3.0467889259439289e+01
L2R_wi[4] -3.0467889259437470e+01
L2R_wi[5] -3.4594000021487119e+00
L2R_wi[6] -3.4594000025747320e+00
L2R_wi[7] -3.4594000021487119e+00
L2R_wi[8] -3.4594000021487119e+00
L2R_wi[9] 3.4594000027259120e+00
L2R_wi[10] 3.4594000027259120e+00
L2R_wi[11] 3.4594000027259120e+00
L2R_wi[12] 3.4594000027259120e+00
L2R_wi[13] 3.4594000027245784e+00
L2R_wi[14] -5.7656666738512286e+00
L2R_wi[15] -5.7656666738403146e+00
L2R_wi[16] -5.7656666768827911e+00
L2R_wi[17] 3.4594000108108607e+00
L2R_wi[18] 3.4594000141432204e+00
L2R_wi[19] 3.4594000141432204e+00
L2R_wi[20] 3.4594000086059822e+00
L2R_wi[21] 1.5347804919786247e+01
L2R_wi[22] 1.5347804919789269e+01
L2R_wi[23] 1.5347804919791088e+01
L2R_wi[24] 3.4593999999997322e+00
L2R_wi[25] 3.4593999999997322e+00
L2R_wtn[1] 2.9900000000000005e-05
L2R_wtn[2] 0.552015333933643
L2R_wtn[3] 9.0601380089098837e-01
L2R_wtn[4] 9.7545354201427847e-01
L2R_wtn[5] 1.0442715527593889e+00
L2R_wtn[6] 1.0384392472587998e+00
L2R_wtn[7] 1.0326590880282074e+00
L2R_wtn[8] 1.0269306127136830e+00
L2R_wtn[9] 1.0212533630475942e+00
L2R_wtn[10] 9.9666130345992421e-01
L2R_wtn[11] 9.7228921427564330e-01
L2R_wtn[12] 9.4813520155770337e-01
L2R_wtn[13] 0.924197389094214
L2R_wtn[14] 9.0047391827059431e-01
L2R_wtn[15] 9.0225038975632432e-01
L2R_wtn[16] 9.0401094591195930e-01
L2R_wtn[17] 9.0575572977239360e-01
L2R_wtn[18] 8.8219744133503109e-01
L2R_wtn[19] 8.5885023574713149e-01
L2R_wtn[20] 8.3571230284509923e-01
L2R_wtn[21] 7.7731471538375163e-01
L2R_wtn[22] 6.7427084076551680e-01
L2R_wtn[23] 5.6326658330571655e-01
L2R_wtn[24] 4.3496324211839948e-01
L2R_wtn[25] 3.1117410159620768e-01
L2R_T 148
L2R_varpi[0] 60
L2R_varpi[1] 2.9484694517572940e+01
L2R_varpi[2] 2.9484694517572940e+01
L2R_varpi[3] 2.9484694517590647e+01
L2R_varpi[4] 29.4846945176082
L2R_varpi[5] 2.9484694535997615e+01
L2R_varpi[6] 2.9484694545217604e+01
L2R_varpi[7] 2.9484694553458478e+01
L2R_varpi[8] 2.1311928367368992e+01
L2R_varpi[9] 2.1311928373698851e+01
L2R_varpi[10] 2.1311928378282392e+01
L2R_varpi[11] 2.1311928384074783e+01
L2R_varpi[12] 2.1311928388363668e+01
L2R_varpi[13] 2.1311928394029451e+01
L2R_varpi[14] 1.2600531386342745e+01
L2R_varpi[15] 3.8976679830934895e+00
L2R_varpi[16] 3.8976679891976773e+00
L2R_varpi[17] 3.8976679968558052e+00
L2R_varpi[18] 3.8976680066652172e+00
L2R_varpi[19] 3.8976680242114981e+00
L2R_varpi[20] 6.3021647943477550e+00
L2R_varpi[21] 7.3133710183824938e+00
L2R_varpi[22] 9.49088455256881
L2R_varpi[23] 1.4523673433699564e+01
L2R_varpi[24] 2.4186395451581895e+01
L2R_varpi[25] 60
L2R_kappa_plus[0] 0
L2R_kappa_plus[1] 0
L2R_kappa_plus[2] 0
L2R_kappa_plus[3] 0
L2R_kappa_plus[4] 5.0421566872759437e-07
L2R_kappa_plus[5] 2.5209519079926141e-07
L2R_kappa_plus[6] 2.2469715356069655e-07
L2R_kappa_plus[7] 0
L2R_kappa_plus[8] 0
L2R_kappa_plus[9] 0
L2R_kappa_plus[10] 0
L2R_kappa_plus[11] 0
L2R_kappa_plus[12] 1.4539849255346147e-07
L2R_kappa_plus[13] 0
L2R_kappa_plus[14] 1.5077570872315443e-07
L2R_kappa_plus[15] 0
L2R_kappa_plus[16] 0
L2R_kappa_plus[17] 2.4589754209850181e-07
L2R_kappa_plus[18] 4.3392902183336429e-07
L2R_kappa_plus[19] 191.156840991707
L2R_kappa_plus[20] 2.4532548428716967e+02
L2R_kappa_plus[21] 2.6810599813535862e+02
L2R_kappa_plus[22] 3.1716115075280055e+02
L2R_kappa_plus[23] 3.7914760021176039e+02
L2R_kappa_plus[24] 4.9061445234506590e+02
L2R_kappa_plus[25] 0
L2R_kappa_minus[0] 500
L2R_kappa_minus[1] 0
L2R_kappa_minus[2] 0
L2R_kappa_minus[3] 0
L2R_kappa_minus[4] 0
L2R_kappa_minus[5] 0
L2R_kappa_minus[6] 0
L2R_kappa_minus[7] 2.2222222222222223e+02
L2R_kappa_minus[8] 0
L2R_kappa_minus[9] 0
L2R_kappa_minus[10] 0
L2R_kappa_minus[11] 0
L2R_kappa_minus[12] 0
L2R_kappa_minus[13] 2.2222222222222223e+02
L2R_kappa_minus[14] 2.2222222222222223e+02
L2R_kappa_minus[15] 0
L2R_kappa_minus[16] 0
L2R_kappa_minus[17] 0
L2R_kappa_minus[18] 0
L2R_kappa_minus[19] 1.3316504147924525e+02
L2R_kappa_minus[20] 2.2222222222222223e+02
L2R_kappa_minus[21] 2.2222222222222223e+02
L2R_kappa_minus[22] 2.2222222222222223e+02
L2R_kappa_minus[23] 2.2222222222222223e+02
L2R_kappa_minus[24] 2.2222222222222223e+02
L2R_kappa_minus[25] 0
L2R_xi[1] 0
L2R_xi[2] 0
L2R_xi[3] 0
L2R_xi[4] 0
L2R_xi[5] 2.3170664793470420e-06
L2R_xi[6] 1.1617183084782218e-06
L2R_xi[7] 1.0383501725046436e-06
L2R_xi[8] 7.0793146767034223e-07
L2R_xi[9] 7.9756238335182458e-07
L2R_xi[10] 5.7752633653951373e-07
L2R_xi[11] 7.2984100768014361e-07
L2R_xi[12] 5.4039976236897076e-07
L2R_xi[13] 7.1388865308108507e-07
L2R_xi[14] -3.4456187711435632e-07
L2R_xi[15] 7.4400628591320118e-07
L2R_xi[16] 7.69127669738801e-07
L2R_xi[17] 9.6492413482707278e-07
L2R_xi[18] 1.2359858793811191e-06
L2R_xi[19] 2.2108314168978195e-06
L2R_xi[20] 9.9866079924904091e+02
L2R_xi[21] 1.3529434348685966e+03
L2R_xi[22] 1.6031670894428569e+03
L2R_xi[23] 2.1184338973035437e+03
L2R_xi[24] 2941.61044483956
L2R_xi[25] 8248.7658779665
R2L_v[0] 0.1
R2L_v[1] 1.0201549190421426e+01
R2L_v[2] 1.3018148482295121e+01
R2L_v[3] 1.5001734161688315e+01
R2L_v[4] 1.6055435122001789e+01
R2L_v[5] 1.6288608995755766e+01
R2L_v[6] 1.6520558779621947e+01
R2L_v[7] 1.6751352900455782e+01
R2L_v[8] 1.6981055988787123e+01
R2L_v[9] 1.7022761530150728e+01
R2L_v[10] 1.7064740979253578e+01
R2L_v[11] 1.7106995682964317e+01
R2L_v[12] 1.7149526991400048e+01
R2L_v[13] 1.7192336258078850e+01
R2L_v[14] 1.7481237432480313e+01
R2L_v[15] 1.7767988471569669e+01
R2L_v[16] 1.8052713328833679e+01
R2L_v[17] 1.8101322911696034e+01
R2L_v[18] 1.8150239430063994e+01
R2L_v[19] 1.8199464311802174e+01
R2L_v[20] 1.8248998988069474e+01
R2L_v[21] 1.7995841011084675e+01
R2L_v[22] 17.7367343093346
R2L_v[23] 1.7471391784731654e+01
R2L_v[24] 1.3587513128413086e+01
R2L_v[25] 0.1
R2L_v2[0] 1.0000000000000002e-02
R2L_v2[1] 1.0407160588458807e+02
R2L_v2[2] 1.6947218990708274e+02
R2L_v2[3] 2.2505202785796621e+02
R2L_v2[4] 2.5777699695680860e+02
R2L_v2[5] 2.6531878301661567e+02
R2L_v2[6] 2.7292886239094378e+02
R2L_v2[7] 2.8060782399560833e+02
R2L_v2[8] 288.356262494323
R2L_v2[9] 2.8977441011237954e+02
R2L_v2[10] 2.9120538468901640e+02
R2L_v2[11] 2.9264930129695978e+02
R2L_v2[12] 2.9410627602875877e+02
R2L_v2[13] 2.9557642601085269e+02
R2L_v2[14] 3.0559366217075086e+02
R2L_v2[15] 3.1570141432583267e+02
R2L_v2[16] 3.2590045853304918e+02
R2L_v2[17] 3.2765789115349179e+02
R2L_v2[18] 3.2943119136864976e+02
R2L_v2[19] 331.220501236561
R2L_v2[20] 3.3302596406656068e+02
R2L_v2[21] 3.2385029369623709e+02
R2L_v2[22] 3.1459174397437630e+02
R2L_v2[23] 3.0524953089558875e+02
R2L_v2[24] 1.8462051302128526e+02
R2L_v2[25] 1.0000000000000002e-02
R2L_E_hat[0] 5.0000000000000010e-03
R2L_E_hat[1] 3.1250019858173721e+02
R2L_E_hat[2] 3.1250019858173721e+02
R2L_E_hat[3] 3.1250019858173721e+02
R2L_E_hat[4] 3.1250019858173721e+02
R2L_E_hat[5] 3.1250019858173721e+02
R2L_E_hat[6] 3.1250019858173721e+02
R2L_E_hat[7] 3.1250019858173721e+02
R2L_E_hat[8] 3.1250019858173721e+02
R2L_E_hat[9] 3.1250019858173721e+02
R2L_E_hat[10] 3.1250019858173721e+02
R2L_E_hat[11] 3.1250019858173721e+02
R2L_E_hat[12] 3.1250019858173721e+02
R2L_E_hat[13] 3.1250019858173721e+02
R2L_E_hat[14] 3.1250019858173721e+02
R2L_E_hat[15] 3.1250019858173721e+02
R2L_E_hat[16] 3.1250019858173721e+02
R2L_E_hat[17] 3.1250019858173721e+02
R2L_E_hat[18] 3.1250019858173721e+02
R2L_E_hat[19] 3.1250019858173721e+02
R2L_E_hat[20] 3.1250019858173721e+02
R2L_E_hat[21] 3.1250019858173721e+02
R2L_E_hat[22] 3.1250019858173721e+02
R2L_E_hat[23] 3.1250019858173721e+02
R2L_E_hat[24] 4.0376498731296806e+02
R2L_E_hat[25] 3.1250019858173721e+02
R2L_a[1] -6.0670245968160008e-01
R2L_a[2] -3.8130004677294560e-01
R2L_a[3] -3.2404289850096546e-01
R2L_a[4] -1.9079389633186206e-01
R2L_a[5] -4.3970301188262395e-02
R2L_a[6] -4.4368466501434556e-02
R2L_a[7] -4.4770065325731245e-02
R2L_a[8] -4.5175131172579208e-02
R2L_a[9] -8.2681181090410449e-03
R2L_a[10] -8.3429021491767674e-03
R2L_a[11] -8.4183570892644166e-03
R2L_a[12] -8.4944888748226255e-03
R2L_a[13] -8.5713035336632149e-03
R2L_a[14] -5.8402729477018273e-02
R2L_a[15] -5.8930457993713915e-02
R2L_a[16] -5.9462711096178296e-02
R2L_a[17] -1.0246225632244720e-02
R2L_a[18] -1.0338737261881843e-02
R2L_a[19] -1.0432077121684017e-02
R2L_a[20] -1.0526252506856626e-02
R2L_a[21] 5.3496212513547033e-02
R2L_a[22] 5.3979417688087616e-02
R2L_a[23] 5.4467193789572654e-02
R2L_a[24] 7.0329418070372851e-01
R2L_a[25] 1.0763206216259635e+00
R2L_f[1] 0
R2L_f[2] 0
R2L_f[3] 0
R2L_f[4] 0
R2L_f[5] 0
R2L_f[6] 0
R2L_f[7] 0
R2L_f[8] 0
R2L_f[9] 0
R2L_f[10] 0
R2L_f[11] 0
R2L_f[12] 0
R2L_f[13] 0
R2L_f[14] 0
R2L_f[15] 0
R2L_f[16] 0
R2L_f[17] 0
R2L_f[18] 0
R2L_f[19] 0
R2L_f[20] 0
R2L_f[21] 0
R2L_f[22] 0
R2L_f[23] 5.3987605497241020e-08
R2L_f[24] 1.3209461456509251e+02
R2L_f[25] 200
R2L_b[1] 1.0687144845991997e+02
R2L_b[2] 3.7044167553965963e+01
R2L_b[3] 2.5785035881949696e+01
R2L_b[4] 5.3459383997486754e-01
R2L_b[5] 3.0019890573385068e-08
R2L_b[6] 1.5050773072289310e-08
R2L_b[7] 1.3452762459564844e-08
R2L_b[8] 0
R2L_b[9] 0
R2L_b[10] 0
R2L_b[11] 0
R2L_b[12] 0
R2L_b[13] 0
R2L_b[14] 0
R2L_b[15] 0
R2L_b[16] 0
R2L_b[17] 1.2501370827422423e-08
R2L_b[18] 1.5965580857368877e-08
R2L_b[19] 1.5848457213252232e-08
R2L_b[20] 0
R2L_b[21] 0
R2L_b[22] 1.7976645949602243e-08
R2L_b[23] 0
R2L_b[24] 0
R2L_b[25] 0
R2L_f_max[1] 200
R2L_f_max[2] 200
R2L_f_max[3] 200
R2L_f_max[4] 200
R2L_f_max[5] 200
R2L_f_max[6] 200
R2L_f_max[7] 200
R2L_f_max[8] 200
R2L_f_max[9] 200
R2L_f_max[10] 200
R2L_f_max[11] 200
R2L_f_max[12] 200
R2L_f_max[13] 200
R2L_f_max[14] 200
R2L_f_max[15] 200
R2L_f_max[16] 200
R2L_f_max[17] 200
R2L_f_max[18] 200
R2L_f_max[19] 200
R2L_f_max[20] 200
R2L_f_max[21] 200
R2L_f_max[22] 200
R2L_f_max[23] 200
R2L_f_max[24] 1.7472991793437728e+02
R2L_f_max[25] 200
R2L_b_max[1] 200
R2L_b_max[2] 200
R2L_b_max[3] 200
R2L_b_max[4] 200
R2L_b_max[5] 200
R2L_b_max[6] 200
R2L_b_max[7] 200
R2L_b_max[8] 200
R2L_b_max[9] 200
R2L_b_max[10] 200
R2L_b_max[11] 200
R2L_b_max[12] 200
R2L_b_max[13] 200
R2L_b_max[14] 200
R2L_b_max[15] 200
R2L_b_max[16] 200
R2L_b_max[17] 200
R2L_b_max[18] 200
R2L_b_max[19] 200
R2L_b_max[20] 200
R2L_b_max[21] 200
R2L_b_max[22] 200
R2L_b_max[23] 200
R2L_b_max[24] 1.7472991793437728e+02
R2L_b_max[25] 200
R2L_gamma[1] 0
R2L_gamma[2] 0
R2L_gamma[3] 0
R2L_gamma[4] 0
R2L_gamma[5] 0
R2L_gamma[6] 0
R2L_gamma[7] 0
R2L_gamma[8] 0
R2L_gamma[9] 0
R2L_gamma[10] 0
R2L_gamma[11] 0
R2L_gamma[12] 0
R2L_gamma[13] 0
R2L_gamma[14] 0
R2L_gamma[15] 0
R2L_gamma[16] 0
R2L_gamma[17] 0
R2L_gamma[18] 0
R2L_gamma[19] 0
R2L_gamma[20] 1
R2L_gamma[21] 1
R2L_gamma[22] 0
R2L_gamma[23] 1
R2L_gamma[24] 1
R2L_gamma[25] 1
R2L_t[1] 1.6813132672148065e+01
R2L_t[2] 7.4971463512936509e+00
R2L_t[3] 6.1521993954465621e+00
R2L_t[4] 5.5290828891976229e+00
R2L_t[5] 5.30326121592105
R2L_t[6] 5.2280683922665867e+00
R2L_t[7] 5.1553470984014158e+00
R2L_t[8] 5.0849601150184949e+00
R2L_t[9] 5.0441471143952059e+00
R2L_t[10] 5.0317637699481255e+00
R2L_t[11] 5.0193604134053391e+00
R2L_t[12] 5.0069373947051350e+00
R2L_t[13] 4.9944950651713365e+00
R2L_t[14] 4.9470501580373965e+00
R2L_t[15] 4.8662444955633370e+00
R2L_t[16] 4.7885951076027720e+00
R2L_t[17] 4.7441538454767178e+00
R2L_t[18] 4.7313909034832209e+00
R2L_t[19] 4.7186165742454413e+00
R2L_t[20] 4.7058312275610525e+00
R2L_t[21] 4.7324906966924649e+00
R2L_t[22] 4.8003542321086536e+00
R2L_t[23] 4.8718793488332182e+00
R2L_t[24] 5.6101366074847521e+00
R2L_t[25] 1.2623354868473420e+01
R2L_Psi_t[1] 9.8024327612803483e-02
R2L_Psi_t[2] 7.6815839161768290e-02
R2L_Psi_t[3] 6.6658960172339077e-02
R2L_Psi_t[4] 6.2284204221263115e-02
R2L_Psi_t[5] 6.1392596523163187e-02
R2L_Psi_t[6] 6.0530640236787669e-02
R2L_Psi_t[7] 5.9696670826676415e-02
R2L_Psi_t[8] 5.8889152751178536e-02
R2L_Psi_t[9] 0.0587448751031846
R2L_Psi_t[10] 5.8600362069119470e-02
R2L_Psi_t[11] 5.8455617721107592e-02
R2L_Psi_t[12] 5.8310646147935671e-02
R2L_Psi_t[13] 5.8165451453992476e-02
R2L_Psi_t[14] 5.7204188425610973e-02
R2L_Psi_t[15] 5.6280991041843996e-02
R2L_Psi_t[16] 5.5393335161579633e-02
R2L_Psi_t[17] 5.5244581010919239e-02
R2L_Psi_t[18] 0.055095691924791
R2L_Psi_t[19] 0.0549466722133964
R2L_Psi_t[20] 5.4797526190546855e-02
R2L_Psi_t[21] 5.5568394907692414e-02
R2L_Psi_t[22] 5.6380164609766859e-02
R2L_Psi_t[23] 5.7236424683344660e-02
R2L_Psi_t[24] 7.3596985006131321e-02
R2L_phi_n[1] 0
R2L_phi_n[2] 0
R2L_phi_n[3] 0
R2L_phi_n[4] 1.3652056516537341e+03
R2L_phi_n[5] 1.3094472138076667e+03
R2L_phi_n[6] 1.2908810845102682e+03
R2L_phi_n[7] 0
R2L_phi_n[8] 0
R2L_phi_n[9] 4.1113197274728975e+02
R2L_phi_n[10] 0
R2L_phi_n[11] 0
R2L_phi_n[12] 1.2362808381987986e+03
R2L_phi_n[13] 0
R2L_phi_n[14] 1.2214938661820731e+03
R2L_phi_n[15] 1.2015418507563795e+03
R2L_phi_n[16] 1.1823691623710547e+03
R2L_phi_n[17] 1.1713960112288191e+03
R2L_phi_n[18] 1.1682446675267211e+03
R2L_phi_n[19] 1.1650905121593682e+03
R2L_phi_n[20] 1.1619336364348278e+03
R2L_phi_n[21] 1.1685162214055467e+03
R2L_phi_n[22] 1.1852726499033713e+03
R2L_phi_n[23] 1.2029331782674328e+03
R2L_phi_n[24] 1.5370940082221337e+04
R2L_phi_n[25] 2.4292186387277576e+04
R2L_phi_b[1] 3.7362517049217950e+03
R2L_phi_b[2] 1.6660325225097135e+03
R2L_phi_b[3] 1.3671554212104097e+03
R2L_phi_b[4] 0
R2L_phi_b[5] 0
R2L_phi_b[6] 0
R2L_phi_b[7] 1.1456326885336809e+03
R2L_phi_b[8] 1.1299911366708091e+03
R2L_phi_b[9] 7.5090280550415150e+02
R2L_phi_b[10] 1.1181697266553565e+03
R2L_phi_b[11] 1.1154134252014778e+03
R2L_phi_b[12] 0
R2L_phi_b[13] 1.1098877922607107e+03
R2L_phi_b[14] 0
R2L_phi_b[15] 0
R2L_phi_b[16] 0
R2L_phi_b[17] 0
R2L_phi_b[18] 0
R2L_phi_b[19] 0
R2L_phi_b[20] 0
R2L_phi_b[21] 0
R2L_phi_b[22] 0
R2L_phi_b[23] 0
R2L_phi_b[24] 0
R2L_phi_b[25] 0
R2L_w0[1] 2.8659406203159525e+00
R2L_w0[2] 3.3186470895225306e+00
R2L_w0[3] 3.6993551758613261e+00
R2L_w0[4] 3.9223937444148733e+00
R2L_w0[5] 3.9737004577664088e+00
R2L_w0[6] 4.02543908158143
R2L_w0[7] 4.0776141143959208e+00
R2L_w0[8] 4.1302300549032136e+00
R2L_w0[9] 4.1398567287259445e+00
R2L_w0[10] 4.1495694620752914e+00
R2L_w0[11] 4.1593690161232892e+00
R2L_w0[12] 4.1692561587026526e+00
R2L_w0[13] 4.1792316643997154e+00
R2L_w0[14] 4.2471749309481881e+00
R2L_w0[15] 4.3156854801392956e+00
R2L_w0[16] 4.3847695710873893e+00
R2L_w0[17] 4.3966692570323174e+00
R2L_w0[18] 4.4086750903108509e+00
R2L_w0[19] 4.4207880082933082e+00
R2L_w0[20] 4.4330089565157254e+00
R2L_w0[21] 4.3708861509341705e+00
R2L_w0[22] 4.3081663320649257e+00
R2L_w0[23] 4.2448415903116965e+00
R2L_w0[24] 3.4226909632968026e+00
R2L_w0[25] 2.0905450000000005e+00
R2L_wi[1] 3.4593999999997322e+00
R2L_wi[2] 3.0467889259438380e+01
R2L_wi[3] 3.0467889259439289e+01
R2L_wi[4] 3.0467889259437470e+01
R2L_wi[5] 3.4594000021487119e+00
R2L_wi[6] 3.4594000025747320e+00
R2L_wi[7] 3.4594000021487119e+00
R2L_wi[8] 3.4594000021487119e+00
R2L_wi[9] -3.4594000027259120e+00
R2L_wi[10] -3.4594000027259120e+00
R2L_wi[11] -3.4594000027259120e+00
R2L_wi[12] -3.4594000027259120e+00
R2L_wi[13] -3.4594000027245784e+00
R2L_wi[14] 5.7656666738512286e+00
R2L_wi[15] 5.7656666738403146e+00
R2L_wi[16] 5.7656666768827911e+00
R2L_wi[17] -3.4594000108108607e+00
R2L_wi[18] -3.4594000141432204e+00
R2L_wi[19] -3.4594000141432204e+00
R2L_wi[20] -3.4594000086059822e+00
R2L_wi[21] -1.5347804919786247e+01
R2L_wi[22] -1.5347804919789269e+01
R2L_wi[23] -1.5347804919791088e+01
R2L_wi[24] -3.4593999999997322e+00
R2L_wi[25] -3.4593999999997322e+00
R2L_wtn[1] 3.1117410159491832e-01
R2L_wtn[2] 5.0672184782217744e-01
R2L_wtn[3] 0.672905563295319
R2L_wtn[4] 7.7075322090085774e-01
R2L_wtn[5] 7.9330316121968092e-01
R2L_wtn[6] 0.816057298548922
R2L_wtn[7] 8.3901739374686890e-01
R2L_wtn[8] 8.6218522485802584e-01
R2L_wtn[9] 8.6642548623601490e-01
R2L_wtn[10] 8.7070410022015909e-01
R2L_wtn[11] 8.7502141087790974e-01
R2L_wtn[12] 8.7937776532598877e-01
R2L_wtn[13] 8.8377351377244961e-01
R2L_wtn[14] 9.1372504989054515e-01
R2L_wtn[15] 9.4394722883423976e-01
R2L_wtn[16] 0.974442371013817
R2L_wtn[17] 9.7969709454894049e-01
R2L_wtn[18] 9.8499926219226286e-01
R2L_wtn[19] 9.9034929869731747e-01
R2L_wtn[20] 9.9574763255901644e-01
R2L_wtn[21] 0.968312378151749
R2L_wtn[22] 9.4062931448338516e-01
R2L_wtn[23] 9.1269609737781043e-01
R2L_wtn[24] 0.552015333933643
R2L_wtn[25] 2.9900000000000005e-05
R2L_T 1.4799999995287905e+02
R2L_varpi[0] 60
R2L_varpi[1] 2.4186395451600617e+01
R2L_varpi[2] 1.4716677146001308e+01
R2L_varpi[3] 9.7719407335582673e+00
R2L_varpi[4] 9.44446382021281
R2L_varpi[5] 9.4444638018234546e+00
R2L_varpi[6] 9.4444637926037522e+00
R2L_varpi[7] 1.8536786709233429e+01
R2L_varpi[8] 2.7504970327986712e+01
R2L_varpi[9] 3.3464516397086719e+01
R2L_varpi[10] 4.2338879302466637e+01
R2L_varpi[11] 5.1191366798273357e+01
R2L_varpi[12] 5.1191366793984805e+01
R2L_varpi[13] 6.0000000060151464e+01
R2L_varpi[14] 6.0000000055419271e+01
R2L_varpi[15] 6.0000000049445028e+01
R2L_varpi[16] 6.0000000043341082e+01
R2L_varpi[17] 6.0000000035683072e+01
R2L_varpi[18] 6.0000000025903013e+01
R2L_varpi[19] 60.0000000161947
R2L_varpi[20] 60.0000000161947
R2L_varpi[21] 60.0000000161947
R2L_varpi[22] 60
R2L_varpi[23] 60
R2L_varpi[24] 60
R2L_varpi[25] 60
R2L_kappa_plus[0] 0
R2L_kappa_plus[1] 4.9061445234369785e+02
R2L_kappa_plus[2] 3.8137404488296357e+02
R2L_kappa_plus[3] 3.2349280009539956e+02
R2L_kappa_plus[4] 7.4627369327638249e+00
R2L_kappa_plus[5] 4.3691207686298049e-07
R2L_kappa_plus[6] 2.2220109218707973e-07
R2L_kappa_plus[7] 2.0141062004919747e-07
R2L_kappa_plus[8] 0
R2L_kappa_plus[9] 0
R2L_kappa_plus[10] 0
R2L_kappa_plus[11] 0
R2L_kappa_plus[12] 0
R2L_kappa_plus[13] 1.4490178551789691e-07
R2L_kappa_plus[14] 1.2052766968098137e-07
R2L_kappa_plus[15] 1.5468901030468188e-07
R2L_kappa_plus[16] 0
R2L_kappa_plus[17] 0
R2L_kappa_plus[18] 2.6044929927714836e-07
R2L_kappa_plus[19] 2.5923856916451824e-07
R2L_kappa_plus[20] 0
R2L_kappa_plus[21] 0
R2L_kappa_plus[22] 4.2504281875908272e-07
R2L_kappa_plus[23] 0
R2L_kappa_plus[24] 0
R2L_kappa_plus[25] 0
R2L_kappa_minus[0] 0
R2L_kappa_minus[1] 2.2222222222222223e+02
R2L_kappa_minus[2] 2.2222222222222223e+02
R2L_kappa_minus[3] 2.2222222222222223e+02
R2L_kappa_minus[4] 0
R2L_kappa_minus[5] 0
R2L_kappa_minus[6] 0
R2L_kappa_minus[7] 2.2222222222222223e+02
R2L_kappa_minus[8] 2.2222222222222223e+02
R2L_kappa_minus[9] 1.4886615883212298e+02
R2L_kappa_minus[10] 2.2222222222222223e+02
R2L_kappa_minus[11] 2.2222222222222223e+02
R2L_kappa_minus[12] 0
R2L_kappa_minus[13] 2.2222222222222223e+02
R2L_kappa_minus[14] 0
R2L_kappa_minus[15] 0
R2L_kappa_minus[16] 0
R2L_kappa_minus[17] 0
R2L_kappa_minus[18] 0
R2L_kappa_minus[19] 0
R2L_kappa_minus[20] 0
R2L_kappa_minus[21] 0
R2L_kappa_minus[22] 0
R2L_kappa_minus[23] 0
R2L_kappa_minus[24] 0
R2L_kappa_minus[25] 500
R2L_xi[1] 8.2487658779304857e+03
R2L_xi[2] 2.8592170290724116e+03
R2L_xi[3] 1.9901922091782328e+03
R2L_xi[4] 4.1262091081527615e+01
R2L_xi[5] 2.3170588719949611e-06
R2L_xi[6] 1.1616825067903856e-06
R2L_xi[7] 1.0383416556578603e-06
R2L_xi[8] 7.0789566598250579e-07
R2L_xi[9] 7.9755004117032576e-07
R2L_xi[10] 5.7748670951696162e-07
R2L_xi[11] 7.2983048448804823e-07
R2L_xi[12] 5.4035831635701510e-07
R2L_xi[13] 7.2371125270365155e-07
R2L_xi[14] 5.96256427343178e-07
R2L_xi[15] 7.5275454491929850e-07
R2L_xi[16] 7.6909741738973068e-07
R2L_xi[17] 9.6490947234428916e-07
R2L_xi[18] 1.2322874454184789e-06
R2L_xi[19] 1.2232474091433689e-06
R2L_xi[20] 0
R2L_xi[21] 0
R2L_xi[22] 2.0403560938575542e-06
R2L_xi[23] 0
R2L_xi[24] 0
R2L_xi[25] 0
